/*
param n:=	10;
param NumCole:= 3;
param NumUsua:= 7;

param Q:= 6; #hom칩geneo
param M:= 10000; #tiempo ruta m치x
  
  
param: xcoord ycoord:=
0	30	40
1	37	52
2	49	49
3	52	64
4	20	26
5	40	30
6	21	47
7	17	63
8   20  40
9   50  60
10  35  10
11  65  10
;

param D:=      #demanda  
0	0
1	1
2	1
3	1
4	1
5	1
6	1
7	1
8	3
9	2
10	2
11	0
;

param S:=      #Tiempo de Servicio 
0	0
1	1
2	1
3	1
4	1
5	1
6	1
7	1
8	3
9	2
10	2
11	0
;

param P:=      #pertenencia  
1	8
2	9
3	9
4	10
5	8
6	10
7	8
;

param TE:=
8  500
9  500
10 500
;
*/


param n :=  23;
param NumCole:= 3;
param NumUsua:= 20;

param Q:= 16; #hom칩geneo
param M:= 10000; #tiempo ruta m치x
  
  
param: xcoord ycoord:=
0	30	40
1	37	52
2	49	49
3	52	64
4	20	26
5	40	30
6	21	47
7	17	63
8	31	62
9	52	33
10	51	21
11	42	41
12	31	32
13	5	25
14	12	42
15	36	16
16	52	41
17	27	23
18	17	33
19	13	13
20	57	58
21  20  40
22  50  60
23  35  10
24  65  10
;

param D:=      #demanda  
0	0
1	1
2	1
3	1
4	1
5	1
6	1
7	1
8	1
9	1
10	1
11	1
12	1
13	1
14	1
15	1
16	1
17	1
18	1
19	1
20	1
21	6
22	5
23	9
24	0
;

param S:=      #Tiempo de Servicio 
0	0
1	1
2	1
3	1
4	1
5	1
6	1
7	1
8	1
9	1
10	1
11	1
12	1
13	1
14	1
15	1
16	1
17	1
18	1
19	1
20	1
21	6
22	5
23	9
24	0
;

param P:=      #pertenencia  
1	21
2	23
3	22
4	22
5	23
6	23
7	23
8	23
9	23
10	22
11	21
12	23
13	21
14	21
15	21
16	23
17	23
18	22
19	21
20	22
;
param TE:=
21 500
22 500
23 500
;  
/*
param TE:=
21 400
22 300
23 200
;  
*/
